************************************************************************
file with basedata            : cn313_.bas
initial value random generator: 1479195941
************************************************************************
projects                      :  1
jobs (incl. supersource/sink ):  18
horizon                       :  125
RESOURCES
  - renewable                 :  2   R
  - nonrenewable              :  3   N
  - doubly constrained        :  0   D
************************************************************************
PROJECT INFORMATION:
pronr.  #jobs rel.date duedate tardcost  MPM-Time
    1     16      0       23        9       23
************************************************************************
PRECEDENCE RELATIONS:
jobnr.    #modes  #successors   successors
   1        1          3           2   3   4
   2        3          2           5   8
   3        3          3           9  16  17
   4        3          3           5   7  12
   5        3          3           6  10  11
   6        3          2          13  15
   7        3          2          10  11
   8        3          2          12  13
   9        3          1          11
  10        3          2          13  14
  11        3          1          14
  12        3          3          14  16  17
  13        3          2          16  17
  14        3          1          15
  15        3          1          18
  16        3          1          18
  17        3          1          18
  18        1          0        
************************************************************************
REQUESTS/DURATIONS:
jobnr. mode duration  R 1  R 2  N 1  N 2  N 3
------------------------------------------------------------------------
  1      1     0       0    0    0    0    0
  2      1     3      10    8    0    0    4
         2     7       5    8    0    5    3
         3     8       4    8    0    2    2
  3      1     1       9    7    6    0    0
         2     3       6    5    4    6    0
         3     6       5    3    0    4    0
  4      1     8       5    5    0    4    2
         2     8       5    4    0    4    3
         3    10       5    1    9    0    2
  5      1     5       6    8    5    1    0
         2     6       4    8    4    1    8
         3     9       1    3    0    1    0
  6      1     1       4    7    0    6    8
         2     4       3    4    0    5    0
         3     9       2    4    0    3    0
  7      1     2       4    6    6    3    1
         2     2       4    7   10    3    0
         3     8       4    5    3    0    0
  8      1     1       3    7    6    0    6
         2     6       3    7    0    8    0
         3    10       3    3    0    6    4
  9      1     6      10    8    3    0    8
         2     8       5    6    0    0    8
         3    10       3    1    0    0    7
 10      1     2       6    9    4    7    0
         2     9       3    5    0    0    1
         3     9       4    5    0    6    0
 11      1     1       9    7    0    0    3
         2     3       6    4    0    7    3
         3     3       8    4    0    7    2
 12      1     6       9    3    8    0    0
         2     9       4    2    8    3    0
         3    10       1    1    0    0    5
 13      1     2       4    8    0    8   10
         2     4       4    4    6    0    8
         3     7       4    4    0    6    5
 14      1     1       7    8    2    0    1
         2     2       6    4    2    0    0
         3     5       1    2    2    0    0
 15      1     1      10   10    8    0    0
         2     2       8    9    0    0    4
         3     5       7    7    0    0    3
 16      1     4      10    8    7    9    0
         2     4      10    6   10    0    0
         3     7      10    4    4    0    0
 17      1     6      10    8    0    0    5
         2     8       8    6    0    0    3
         3     9       7    5   10    0    0
 18      1     0       0    0    0    0    0
************************************************************************
RESOURCEAVAILABILITIES:
  R 1  R 2  N 1  N 2  N 3
   15   13   48   36   43
************************************************************************
